0 80.0
1 79.0
2 80.0
3 86.0
4 74.0
5 81.0
6 91.0
7 85.0
8 86.0
9 91.0
10 85.0
11 96.0
12 84.0
13 85.0
14 79.0
15 84.0
16 85.0
17 89.0
18 74.0
19 81.0
20 79.0
21 85.0
22 86.0
23 85.0
24 79.0
25 78.0
26 72.0
27 78.0
28 67.0
29 74.0
30 83.0
31 78.0
32 72.0
33 75.0
34 71.0
35 79.0
36 83.0
37 78.0
38 79.0
39 75.0
40 85.0
41 86.0
42 73.0
43 73.0
44 77.0
45 74.0
46 84.0
47 81.0
48 87.0
49 81.0
50 86.0
51 91.0
52 81.0
53 92.0
54 80.0
55 75.0
56 80.0
57 83.0
58 74.0
59 82.0
60 75.0
61 80.0
62 76.0
63 78.0
64 81.0
65 78.0
66 75.0
67 85.0
68 74.0
69 82.0
70 85.0
71 83.0
72 74.0
73 75.0
74 80.0
75 85.0
76 75.0
77 79.0
78 81.0
79 76.0
80 81.0
81 77.0
82 82.0
83 83.0
84 76.0
85 81.0
86 70.0
87 72.0
88 75.0
89 72.0
90 76.0
91 86.0
92 82.0
93 83.0
94 86.0
95 77.0
96 72.0
97 79.0
98 83.0
99 89.0
100 83.0
101 82.0
102 78.0
103 78.0
104 82.0
105 79.0
106 89.0
107 86.0
108 83.0
109 93.0
110 76.0
111 84.0
112 82.0
113 80.0
114 83.0
115 93.0
116 90.0
117 91.0
118 89.0
119 80.0
120 73.0
121 72.0
122 73.0
123 79.0
124 67.0
125 74.0
126 81.0
127 75.0
128 76.0
129 81.0
130 75.0
131 86.0
132 75.0
133 76.0
134 70.0
135 75.0
136 76.0
137 80.0
138 72.0
139 79.0
140 77.0
141 83.0
142 84.0
143 83.0
144 69.0
145 68.0
146 63.0
147 69.0
148 65.0
149 72.0
150 71.0
151 73.0
152 68.0
153 82.0
154 67.0
155 79.0
156 71.0
157 74.0
158 74.0
159 82.0
160 80.0
161 85.0
162 68.0
163 69.0
164 65.0
165 74.0
166 72.0
167 80.0
168 80.0
169 74.0
170 77.0
171 82.0
172 79.0
173 90.0
174 74.0
175 76.0
176 79.0
177 93.0
178 73.0
179 85.0
180 69.0
181 79.0
182 77.0
183 88.0
184 82.0
185 83.0
186 76.0
187 84.0
188 68.0
189 85.0
190 79.0
191 88.0
192 67.0
193 68.0
194 70.0
195 75.0
196 73.0
197 77.0
198 73.0
199 76.0
200 78.0
201 86.0
202 79.0
203 84.0
204 68.0
205 78.0
206 70.0
207 81.0
208 75.0
209 76.0
210 76.0
211 83.0
212 74.0
213 84.0
214 78.0
215 81.0
216 65.0
217 72.0
218 73.0
219 79.0
220 74.0
221 73.0
222 63.0
223 64.0
224 65.0
225 74.0
226 72.0
227 80.0
228 68.0
229 76.0
230 62.0
231 79.0
232 68.0
233 77.0
234 69.0
235 76.0
236 75.0
237 85.0
238 74.0
239 77.0
240 77.0
241 76.0
242 70.0
243 76.0
244 65.0
245 72.0
246 77.0
247 72.0
248 66.0
249 69.0
250 65.0
251 73.0
252 71.0
253 66.0
254 67.0
255 63.0
256 73.0
257 74.0
258 69.0
259 69.0
260 73.0
261 70.0
262 80.0
263 77.0
264 74.0
265 73.0
266 68.0
267 74.0
268 70.0
269 77.0
270 75.0
271 77.0
272 72.0
273 86.0
274 71.0
275 83.0
276 68.0
277 71.0
278 71.0
279 79.0
280 77.0
281 82.0
282 66.0
283 67.0
284 63.0
285 72.0
286 70.0
287 78.0
288 78.0
289 73.0
290 68.0
291 71.0
292 70.0
293 78.0
294 79.0
295 81.0
296 76.0
297 90.0
298 71.0
299 83.0
300 68.0
301 68.0
302 75.0
303 79.0
304 78.0
305 82.0
306 74.0
307 72.0
308 67.0
309 76.0
310 75.0
311 86.0
312 79.0
313 74.0
314 75.0
315 71.0
316 78.0
317 79.0
318 78.0
319 81.0
320 82.0
321 90.0
322 77.0
323 82.0
324 74.0
325 74.0
326 82.0
327 86.0
328 78.0
329 82.0
330 88.0
331 85.0
332 80.0
333 89.0
334 81.0
335 93.0
336 76.0
337 76.0
338 76.0
339 73.0
340 77.0
341 74.0
342 68.0
343 69.0
344 69.0
345 78.0
346 69.0
347 77.0
348 72.0
349 70.0
350 73.0
351 82.0
352 70.0
353 81.0
354 80.0
355 77.0
356 79.0
357 88.0
358 76.0
359 88.0
360 81.0
361 75.0
362 80.0
363 85.0
364 75.0
365 86.0
366 73.0
367 68.0
368 73.0
369 76.0
370 67.0
371 75.0
372 70.0
373 75.0
374 71.0
375 73.0
376 76.0
377 73.0
378 73.0
379 83.0
380 72.0
381 80.0
382 83.0
383 81.0
384 84.0
385 78.0
386 81.0
387 86.0
388 83.0
389 94.0
390 74.0
391 76.0
392 79.0
393 93.0
394 73.0
395 85.0
396 73.0
397 83.0
398 81.0
399 92.0
400 86.0
401 87.0
402 76.0
403 84.0
404 68.0
405 85.0
406 79.0
407 88.0
408 77.0
409 72.0
410 67.0
411 70.0
412 69.0
413 77.0
414 75.0
415 77.0
416 72.0
417 86.0
418 67.0
419 79.0
420 75.0
421 75.0
422 82.0
423 86.0
424 85.0
425 89.0
426 76.0
427 74.0
428 69.0
429 78.0
430 77.0
431 88.0
432 70.0
433 75.0
434 63.0
435 65.0
436 73.0
437 70.0
438 72.0
439 82.0
440 70.0
441 81.0
442 75.0
443 76.0
444 73.0
445 73.0
446 78.0
447 82.0
448 80.0
449 84.0
450 83.0
451 73.0
452 78.0
453 77.0
454 75.0
455 84.0
456 77.0
457 87.0
458 69.0
459 77.0
460 77.0
461 75.0
462 72.0
463 80.0
464 62.0
465 79.0
466 72.0
467 81.0
468 71.0
469 69.0
470 69.0
471 78.0
472 77.0
473 88.0
474 80.0
475 70.0
476 82.0
477 81.0
478 80.0
479 89.0
480 68.0
481 69.0
482 74.0
483 79.0
484 69.0
485 73.0
486 67.0
487 62.0
488 67.0
489 63.0
490 68.0
491 69.0
492 70.0
493 75.0
494 64.0
495 66.0
496 69.0
497 66.0
498 67.0
499 77.0
500 73.0
501 74.0
502 77.0
503 68.0
504 70.0
505 71.0
506 73.0
507 78.0
508 76.0
509 80.0
510 66.0
511 69.0
512 71.0
513 79.0
514 72.0
515 77.0
516 72.0
517 82.0
518 74.0
519 85.0
520 79.0
521 80.0
522 69.0
523 76.0
524 67.0
525 77.0
526 71.0
527 74.0
528 77.0
529 72.0
530 73.0
531 69.0
532 76.0
533 77.0
534 74.0
535 77.0
536 78.0
537 86.0
538 73.0
539 78.0
540 74.0
541 74.0
542 82.0
543 86.0
544 78.0
545 82.0
546 83.0
547 80.0
548 75.0
549 84.0
550 76.0
551 88.0
552 69.0
553 74.0
554 62.0
555 64.0
556 72.0
557 69.0
558 72.0
559 82.0
560 70.0
561 81.0
562 75.0
563 76.0
564 66.0
565 66.0
566 71.0
567 75.0
568 73.0
569 77.0
570 76.0
571 66.0
572 71.0
573 70.0
574 68.0
575 77.0
576 77.0
577 87.0
578 76.0
579 77.0
580 83.0
581 74.0
582 72.0
583 79.0
584 68.0
585 78.0
586 78.0
587 81.0
588 78.0
589 75.0
590 75.0
591 84.0
592 76.0
593 88.0
594 79.0
595 69.0
596 82.0
597 81.0
598 73.0
599 82.0
600 74.0
601 81.0
602 85.0
603 91.0
604 85.0
605 84.0
606 73.0
607 73.0
608 77.0
609 74.0
610 84.0
611 81.0
612 81.0
613 91.0
614 74.0
615 82.0
616 80.0
617 78.0
618 75.0
619 85.0
620 82.0
621 83.0
622 81.0
623 72.0
624 69.0
625 76.0
626 77.0
627 83.0
628 78.0
629 77.0
630 65.0
631 66.0
632 67.0
633 76.0
634 74.0
635 82.0
636 76.0
637 84.0
638 70.0
639 87.0
640 76.0
641 85.0
642 70.0
643 77.0
644 76.0
645 86.0
646 75.0
647 78.0
648 75.0
649 75.0
650 75.0
651 72.0
652 76.0
653 73.0
654 72.0
655 73.0
656 73.0
657 82.0
658 73.0
659 81.0
660 76.0
661 74.0
662 77.0
663 86.0
664 74.0
665 85.0
666 84.0
667 81.0
668 83.0
669 92.0
670 80.0
671 92.0
672 77.0
673 87.0
674 69.0
675 77.0
676 77.0
677 75.0
678 80.0
679 88.0
680 70.0
681 87.0
682 80.0
683 89.0
684 73.0
685 71.0
686 71.0
687 80.0
688 79.0
689 90.0
690 77.0
691 67.0
692 79.0
693 78.0
694 77.0
695 86.0
696 78.0
697 88.0
698 77.0
699 78.0
700 84.0
701 75.0
702 80.0
703 87.0
704 76.0
705 86.0
706 86.0
707 89.0
708 87.0
709 84.0
710 84.0
711 93.0
712 85.0
713 97.0
714 83.0
715 73.0
716 86.0
717 85.0
718 77.0
719 86.0
720 77.0
721 76.0
722 77.0
723 83.0
724 71.0
725 78.0
726 88.0
727 82.0
728 83.0
729 88.0
730 82.0
731 93.0
732 81.0
733 82.0
734 76.0
735 81.0
736 82.0
737 86.0
738 71.0
739 78.0
740 76.0
741 82.0
742 83.0
743 82.0
744 81.0
745 80.0
746 74.0
747 80.0
748 69.0
749 76.0
750 85.0
751 80.0
752 74.0
753 77.0
754 73.0
755 81.0
756 85.0
757 80.0
758 81.0
759 77.0
760 87.0
761 88.0
762 75.0
763 75.0
764 79.0
765 76.0
766 86.0
767 83.0
768 88.0
769 82.0
770 87.0
771 92.0
772 82.0
773 93.0
774 81.0
775 76.0
776 81.0
777 84.0
778 75.0
779 83.0
780 76.0
781 81.0
782 77.0
783 79.0
784 82.0
785 79.0
786 76.0
787 86.0
788 75.0
789 83.0
790 86.0
791 84.0
792 74.0
793 75.0
794 80.0
795 85.0
796 75.0
797 79.0
798 81.0
799 76.0
800 81.0
801 77.0
802 82.0
803 83.0
804 76.0
805 81.0
806 70.0
807 72.0
808 75.0
809 72.0
810 76.0
811 86.0
812 82.0
813 83.0
814 86.0
815 77.0
816 73.0
817 80.0
818 84.0
819 90.0
820 84.0
821 83.0
822 79.0
823 79.0
824 83.0
825 80.0
826 90.0
827 87.0
828 84.0
829 94.0
830 77.0
831 85.0
832 83.0
833 81.0
834 84.0
835 94.0
836 91.0
837 92.0
838 90.0
839 81.0
840 75.0
841 74.0
842 75.0
843 81.0
844 69.0
845 76.0
846 82.0
847 76.0
848 77.0
849 82.0
850 76.0
851 87.0
852 75.0
853 76.0
854 70.0
855 75.0
856 76.0
857 80.0
858 73.0
859 80.0
860 78.0
861 84.0
862 85.0
863 84.0
864 75.0
865 74.0
866 68.0
867 74.0
868 71.0
869 78.0
870 75.0
871 78.0
872 72.0
873 71.0
874 75.0
875 78.0
876 79.0
877 85.0
878 73.0
879 73.0
880 69.0
881 76.0
882 86.0
883 80.0
884 81.0
885 86.0
886 84.0
887 95.0
888 79.0
889 82.0
890 83.0
891 77.0
892 74.0
893 83.0
894 83.0
895 88.0
896 82.0
897 88.0
898 73.0
899 84.0
900 72.0
901 73.0
902 74.0
903 79.0
904 77.0
905 81.0
906 79.0
907 82.0
908 83.0
909 84.0
910 74.0
911 83.0
912 76.0
913 81.0
914 82.0
915 88.0
916 80.0
917 84.0
918 71.0
919 78.0
920 78.0
921 84.0
922 78.0
923 77.0
924 69.0
925 69.0
926 69.0
927 76.0
928 74.0
929 80.0
930 67.0
931 73.0
932 74.0
933 80.0
934 81.0
935 80.0
936 74.0
937 73.0
938 67.0
939 73.0
940 62.0
941 69.0
942 78.0
943 73.0
944 67.0
945 70.0
946 66.0
947 74.0
948 71.0
949 66.0
950 67.0
951 63.0
952 73.0
953 74.0
954 70.0
955 70.0
956 74.0
957 71.0
958 81.0
959 78.0
960 70.0
961 69.0
962 63.0
963 69.0
964 66.0
965 73.0
966 74.0
967 77.0
968 71.0
969 70.0
970 67.0
971 70.0
972 71.0
973 77.0
974 66.0
975 66.0
976 62.0
977 69.0
978 74.0
979 69.0
980 67.0
981 70.0
982 70.0
983 78.0
984 74.0
985 77.0
986 75.0
987 70.0
988 63.0
989 67.0
990 71.0
991 74.0
992 70.0
993 71.0
994 62.0
995 70.0
996 74.0
997 69.0
998 74.0
999 70.0
1000 77.0
1001 78.0
1002 74.0
1003 77.0
1004 82.0
1005 77.0
1006 70.0
1007 74.0
1008 78.0
1009 74.0
1010 84.0
1011 85.0
1012 76.0
1013 77.0
1014 72.0
1015 72.0
1016 76.0
1017 73.0
1018 76.0
1019 73.0
1020 64.0
1021 64.0
1022 68.0
1023 68.0
1024 68.0
1025 69.0
1026 68.0
1027 65.0
1028 75.0
1029 76.0
1030 75.0
1031 72.0
1032 78.0
1033 72.0
1034 77.0
1035 82.0
1036 72.0
1037 83.0
1038 75.0
1039 70.0
1040 75.0
1041 78.0
1042 69.0
1043 77.0
1044 70.0
1045 75.0
1046 71.0
1047 73.0
1048 76.0
1049 73.0
1050 74.0
1051 84.0
1052 73.0
1053 81.0
1054 84.0
1055 82.0
1056 82.0
1057 76.0
1058 77.0
1059 82.0
1060 80.0
1061 91.0
1062 75.0
1063 78.0
1064 79.0
1065 73.0
1066 74.0
1067 83.0
1068 83.0
1069 88.0
1070 78.0
1071 84.0
1072 69.0
1073 80.0
1074 75.0
1075 70.0
1076 68.0
1077 71.0
1078 71.0
1079 79.0
1080 71.0
1081 74.0
1082 72.0
1083 67.0
1084 71.0
1085 75.0
1086 79.0
1087 82.0
1088 73.0
1089 74.0
1090 65.0
1091 73.0
1092 66.0
1093 71.0
1094 64.0
1095 66.0
1096 73.0
1097 70.0
1098 70.0
1099 79.0
1100 72.0
1101 77.0
1102 71.0
1103 75.0
1104 75.0
1105 77.0
1106 80.0
1107 75.0
1108 76.0
1109 73.0
1110 74.0
1111 84.0
1112 71.0
1113 79.0
1114 77.0
1115 75.0
1116 70.0
1117 76.0
1118 63.0
1119 73.0
1120 69.0
1121 70.0
1122 65.0
1123 73.0
1124 76.0
1125 71.0
1126 80.0
1127 78.0
1128 65.0
1129 66.0
1130 71.0
1131 76.0
1132 66.0
1133 70.0
1134 69.0
1135 64.0
1136 69.0
1137 65.0
1138 70.0
1139 71.0
1140 71.0
1141 76.0
1142 65.0
1143 67.0
1144 70.0
1145 67.0
1146 68.0
1147 78.0
1148 74.0
1149 75.0
1150 78.0
1151 69.0
1152 69.0
1153 70.0
1154 71.0
1155 76.0
1156 74.0
1157 78.0
1158 69.0
1159 72.0
1160 73.0
1161 74.0
1162 75.0
1163 84.0
1164 77.0
1165 82.0
1166 72.0
1167 78.0
1168 70.0
1169 74.0
1170 76.0
1171 71.0
1172 76.0
1173 72.0
1174 79.0
1175 80.0
1176 72.0
1177 75.0
1178 80.0
1179 75.0
1180 72.0
1181 76.0
1182 80.0
1183 76.0
1184 81.0
1185 82.0
1186 73.0
1187 74.0
1188 67.0
1189 72.0
1190 65.0
1191 67.0
1192 74.0
1193 71.0
1194 71.0
1195 80.0
1196 73.0
1197 78.0
1198 65.0
1199 69.0
1200 69.0
1201 71.0
1202 74.0
1203 69.0
1204 70.0
1205 67.0
1206 75.0
1207 85.0
1208 79.0
1209 80.0
1210 85.0
1211 76.0
1212 71.0
1213 77.0
1214 71.0
1215 81.0
1216 77.0
1217 78.0
1218 73.0
1219 74.0
1220 77.0
1221 72.0
1222 81.0
1223 72.0
1224 71.0
1225 78.0
1226 82.0
1227 88.0
1228 82.0
1229 81.0
1230 75.0
1231 75.0
1232 79.0
1233 76.0
1234 86.0
1235 83.0
1236 82.0
1237 92.0
1238 75.0
1239 83.0
1240 81.0
1241 79.0
1242 75.0
1243 85.0
1244 82.0
1245 83.0
1246 81.0
1247 72.0
1248 67.0
1249 74.0
1250 74.0
1251 80.0
1252 74.0
1253 73.0
1254 67.0
1255 67.0
1256 67.0
1257 74.0
1258 78.0
1259 84.0
1260 71.0
1261 77.0
1262 71.0
1263 77.0
1264 78.0
1265 77.0
1266 73.0
1267 73.0
1268 77.0
1269 74.0
1270 77.0
1271 74.0
1272 69.0
1273 69.0
1274 73.0
1275 73.0
1276 73.0
1277 74.0
1278 73.0
1279 70.0
1280 80.0
1281 81.0
1282 80.0
1283 77.0
1284 74.0
1285 84.0
1286 71.0
1287 79.0
1288 77.0
1289 75.0
1290 78.0
1291 84.0
1292 71.0
1293 81.0
1294 71.0
1295 72.0
1296 67.0
1297 75.0
1298 73.0
1299 68.0
1300 77.0
1301 75.0
1302 74.0
1303 84.0
1304 78.0
1305 79.0
1306 84.0
1307 75.0
1308 78.0
1309 84.0
1310 78.0
1311 88.0
1312 85.0
1313 86.0
1314 81.0
1315 82.0
1316 80.0
1317 75.0
1318 84.0
1319 75.0
1320 68.0
1321 67.0
1322 68.0
1323 74.0
1324 62.0
1325 69.0
1326 76.0
1327 70.0
1328 71.0
1329 76.0
1330 70.0
1331 81.0
1332 70.0
1333 71.0
1334 65.0
1335 70.0
1336 71.0
1337 75.0
1338 67.0
1339 74.0
1340 72.0
1341 78.0
1342 79.0
1343 78.0
1344 62.0
1345 61.0
1346 56.0
1347 62.0
1348 58.0
1349 65.0
1350 64.0
1351 66.0
1352 61.0
1353 60.0
1354 64.0
1355 67.0
1356 67.0
1357 73.0
1358 61.0
1359 62.0
1360 58.0
1361 65.0
1362 69.0
1363 63.0
1364 66.0
1365 71.0
1366 68.0
1367 79.0
1368 63.0
1369 65.0
1370 68.0
1371 62.0
1372 58.0
1373 68.0
1374 66.0
1375 71.0
1376 65.0
1377 73.0
1378 57.0
1379 68.0
1380 56.0
1381 57.0
1382 59.0
1383 64.0
1384 62.0
1385 66.0
1386 62.0
1387 65.0
1388 67.0
1389 68.0
1390 57.0
1391 67.0
1392 59.0
1393 64.0
1394 65.0
1395 72.0
1396 63.0
1397 67.0
1398 62.0
1399 69.0
1400 70.0
1401 76.0
1402 71.0
1403 70.0
1404 60.0
1405 61.0
1406 62.0
1407 69.0
1408 65.0
1409 73.0
1410 59.0
1411 65.0
1412 66.0
1413 73.0
1414 72.0
1415 71.0
1416 73.0
1417 72.0
1418 73.0
1419 79.0
1420 67.0
1421 74.0
1422 80.0
1423 74.0
1424 75.0
1425 80.0
1426 74.0
1427 85.0
1428 73.0
1429 74.0
1430 68.0
1431 73.0
1432 74.0
1433 78.0
1434 71.0
1435 78.0
1436 76.0
1437 82.0
1438 83.0
1439 82.0
1440 66.0
1441 65.0
1442 59.0
1443 65.0
1444 62.0
1445 69.0
1446 66.0
1447 69.0
1448 63.0
1449 62.0
1450 66.0
1451 69.0
1452 70.0
1453 76.0
1454 64.0
1455 64.0
1456 60.0
1457 67.0
1458 74.0
1459 68.0
1460 69.0
1461 74.0
1462 72.0
1463 83.0
1464 67.0
1465 70.0
1466 71.0
1467 65.0
1468 62.0
1469 71.0
1470 71.0
1471 76.0
1472 70.0
1473 76.0
1474 61.0
1475 72.0
1476 61.0
1477 62.0
1478 63.0
1479 68.0
1480 66.0
1481 70.0
1482 68.0
1483 71.0
1484 72.0
1485 73.0
1486 63.0
1487 72.0
1488 65.0
1489 70.0
1490 71.0
1491 77.0
1492 69.0
1493 73.0
1494 67.0
1495 74.0
1496 74.0
1497 80.0
1498 74.0
1499 73.0
1500 65.0
1501 65.0
1502 65.0
1503 72.0
1504 70.0
1505 76.0
1506 63.0
1507 69.0
1508 70.0
1509 76.0
1510 77.0
1511 76.0
1512 69.0
1513 68.0
1514 63.0
1515 69.0
1516 65.0
1517 72.0
1518 64.0
1519 66.0
1520 61.0
1521 60.0
1522 57.0
1523 60.0
1524 60.0
1525 66.0
1526 63.0
1527 64.0
1528 60.0
1529 67.0
1530 68.0
1531 67.0
1532 61.0
1533 67.0
1534 64.0
1535 71.0
1536 62.0
1537 65.0
1538 59.0
1539 58.0
1540 56.0
1541 59.0
1542 60.0
1543 66.0
1544 62.0
1545 62.0
1546 58.0
1547 65.0
1548 70.0
1549 72.0
1550 61.0
1551 64.0
1552 69.0
1553 72.0
1554 61.0
1555 63.0
1556 66.0
1557 67.0
1558 66.0
1559 65.0
1560 69.0
1561 72.0
1562 67.0
1563 70.0
1564 70.0
1565 73.0
1566 68.0
1567 71.0
1568 73.0
1569 73.0
1570 79.0
1571 79.0
1572 67.0
1573 68.0
1574 62.0
1575 62.0
1576 67.0
1577 67.0
1578 61.0
1579 62.0
1580 64.0
1581 63.0
1582 70.0
1583 71.0
1584 79.0
1585 73.0
1586 76.0
1587 81.0
1588 78.0
1589 89.0
1590 67.0
1591 69.0
1592 72.0
1593 66.0
1594 62.0
1595 72.0
1596 70.0
1597 75.0
1598 73.0
1599 81.0
1600 65.0
1601 76.0
1602 80.0
1603 74.0
1604 75.0
1605 80.0
1606 78.0
1607 89.0
1608 66.0
1609 69.0
1610 70.0
1611 64.0
1612 63.0
1613 72.0
1614 72.0
1615 77.0
1616 74.0
1617 80.0
1618 65.0
1619 76.0
1620 74.0
1621 76.0
1622 65.0
1623 68.0
1624 72.0
1625 75.0
1626 64.0
1627 66.0
1628 77.0
1629 78.0
1630 72.0
1631 71.0
1632 67.0
1633 77.0
1634 63.0
1635 72.0
1636 69.0
1637 78.0
1638 64.0
1639 74.0
1640 77.0
1641 76.0
1642 81.0
1643 82.0
1644 75.0
1645 83.0
1646 63.0
1647 69.0
1648 76.0
1649 82.0
1650 62.0
1651 70.0
1652 68.0
1653 66.0
1654 77.0
1655 79.0
1656 65.0
1657 66.0
1658 68.0
1659 73.0
1660 71.0
1661 75.0
1662 59.0
1663 62.0
1664 64.0
1665 65.0
1666 61.0
1667 71.0
1668 63.0
1669 68.0
1670 66.0
1671 73.0
1672 64.0
1673 68.0
1674 67.0
1675 68.0
1676 69.0
1677 74.0
1678 72.0
1679 76.0
1680 60.0
1681 63.0
1682 64.0
1683 65.0
1684 63.0
1685 72.0
1686 65.0
1687 70.0
1688 68.0
1689 74.0
1690 66.0
1691 70.0
1692 73.0
1693 76.0
1694 71.0
1695 74.0
1696 72.0
1697 75.0
1698 70.0
1699 73.0
1700 77.0
1701 77.0
1702 78.0
1703 78.0
1704 67.0
1705 77.0
1706 63.0
1707 72.0
1708 68.0
1709 77.0
1710 63.0
1711 73.0
1712 70.0
1713 69.0
1714 74.0
1715 75.0
1716 75.0
1717 82.0
1718 69.0
1719 75.0
1720 76.0
1721 82.0
1722 69.0
1723 76.0
1724 74.0
1725 73.0
1726 77.0
1727 78.0
1728 64.0
1729 71.0
1730 72.0
1731 78.0
1732 73.0
1733 72.0
1734 58.0
1735 59.0
1736 60.0
1737 67.0
1738 65.0
1739 73.0
1740 59.0
1741 65.0
1742 59.0
1743 66.0
1744 65.0
1745 64.0
1746 65.0
1747 72.0
1748 72.0
1749 78.0
1750 72.0
1751 71.0
1752 58.0
1753 58.0
1754 58.0
1755 65.0
1756 66.0
1757 72.0
1758 59.0
1759 65.0
1760 60.0
1761 66.0
1762 67.0
1763 66.0
1764 63.0
1765 64.0
1766 58.0
1767 58.0
1768 62.0
1769 62.0
1770 56.0
1771 57.0
1772 64.0
1773 63.0
1774 70.0
1775 71.0
1776 67.0
1777 75.0
1778 55.0
1779 61.0
1780 68.0
1781 74.0
1782 54.0
1783 62.0
1784 62.0
1785 60.0
1786 66.0
1787 68.0
1788 67.0
1789 74.0
1790 61.0
1791 67.0
1792 69.0
1793 75.0
1794 62.0
1795 69.0
1796 75.0
1797 74.0
1798 73.0
1799 74.0
1800 82.0
1801 81.0
1802 75.0
1803 81.0
1804 70.0
1805 77.0
1806 82.0
1807 77.0
1808 71.0
1809 70.0
1810 76.0
1811 71.0
1812 72.0
1813 78.0
1814 74.0
1815 74.0
1816 78.0
1817 85.0
1818 72.0
1819 71.0
1820 66.0
1821 72.0
1822 68.0
1823 75.0
1824 73.0
1825 75.0
1826 70.0
1827 69.0
1828 66.0
1829 69.0
1830 69.0
1831 75.0
1832 64.0
1833 65.0
1834 61.0
1835 68.0
1836 76.0
1837 71.0
1838 66.0
1839 68.0
1840 77.0
1841 79.0
1842 74.0
1843 69.0
1844 66.0
1845 73.0
1846 72.0
1847 65.0
1848 70.0
1849 65.0
1850 66.0
1851 69.0
1852 69.0
1853 72.0
1854 73.0
1855 68.0
1856 65.0
1857 73.0
1858 79.0
1859 71.0
1860 76.0
1861 76.0
1862 76.0
1863 77.0
1864 68.0
1865 69.0
1866 69.0
1867 69.0
1868 72.0
1869 73.0
1870 80.0
1871 79.0
1872 77.0
1873 76.0
1874 70.0
1875 76.0
1876 65.0
1877 72.0
1878 81.0
1879 76.0
1880 70.0
1881 69.0
1882 74.0
1883 69.0
1884 70.0
1885 76.0
1886 73.0
1887 73.0
1888 77.0
1889 84.0
1890 71.0
1891 70.0
1892 64.0
1893 70.0
1894 67.0
1895 74.0
1896 75.0
1897 78.0
1898 72.0
1899 71.0
1900 68.0
1901 71.0
1902 72.0
1903 78.0
1904 67.0
1905 67.0
1906 63.0
1907 70.0
1908 71.0
1909 66.0
1910 64.0
1911 67.0
1912 71.0
1913 74.0
1914 72.0
1915 67.0
1916 60.0
1917 68.0
1918 67.0
1919 59.0
1920 65.0
1921 60.0
1922 65.0
1923 68.0
1924 65.0
1925 68.0
1926 73.0
1927 68.0
1928 61.0
1929 69.0
1930 75.0
1931 67.0
1932 71.0
1933 71.0
1934 75.0
1935 75.0
1936 63.0
1937 63.0
1938 67.0
1939 67.0
1940 67.0
1941 67.0
1942 74.0
1943 74.0
1944 74.0
1945 73.0
1946 68.0
1947 74.0
1948 70.0
1949 77.0
1950 69.0
1951 71.0
1952 66.0
1953 65.0
1954 62.0
1955 65.0
1956 65.0
1957 71.0
1958 68.0
1959 69.0
1960 65.0
1961 72.0
1962 78.0
1963 77.0
1964 71.0
1965 77.0
1966 74.0
1967 81.0
1968 72.0
1969 75.0
1970 69.0
1971 68.0
1972 66.0
1973 69.0
1974 70.0
1975 76.0
1976 72.0
1977 72.0
1978 68.0
1979 75.0
1980 79.0
1981 81.0
1982 70.0
1983 73.0
1984 78.0
1985 81.0
1986 70.0
1987 72.0
1988 75.0
1989 76.0
1990 75.0
1991 74.0
1992 71.0
1993 74.0
1994 69.0
1995 72.0
1996 72.0
1997 75.0
1998 70.0
1999 73.0
2000 75.0
2001 75.0
2002 81.0
2003 81.0
2004 70.0
2005 71.0
2006 65.0
2007 65.0
2008 70.0
2009 70.0
2010 64.0
2011 65.0
2012 67.0
2013 66.0
2014 73.0
2015 74.0
2016 82.0
2017 77.0
2018 72.0
2019 74.0
2020 73.0
2021 75.0
2022 70.0
2023 65.0
2024 66.0
2025 73.0
2026 76.0
2027 69.0
2028 78.0
2029 73.0
2030 71.0
2031 74.0
2032 72.0
2033 75.0
2034 73.0
2035 68.0
2036 62.0
2037 70.0
2038 72.0
2039 64.0
2040 79.0
2041 81.0
2042 70.0
2043 73.0
2044 82.0
2045 85.0
2046 74.0
2047 76.0
2048 79.0
2049 80.0
2050 75.0
2051 74.0
2052 71.0
2053 69.0
2054 68.0
2055 70.0
2056 75.0
2057 79.0
2058 78.0
2059 69.0
2060 74.0
2061 68.0
2062 67.0
2063 70.0
2064 82.0
2065 77.0
2066 78.0
2067 81.0
2068 72.0
2069 75.0
2070 76.0
2071 71.0
2072 72.0
2073 80.0
2074 83.0
2075 75.0
2076 79.0
2077 74.0
2078 79.0
2079 82.0
2080 73.0
2081 76.0
2082 81.0
2083 76.0
2084 69.0
2085 77.0
2086 80.0
2087 72.0
2088 78.0
2089 81.0
2090 76.0
2091 79.0
2092 82.0
2093 85.0
2094 80.0
2095 83.0
2096 86.0
2097 86.0
2098 81.0
2099 81.0
2100 78.0
2101 76.0
2102 74.0
2103 76.0
2104 82.0
2105 86.0
2106 92.0
2107 82.0
2108 88.0
2109 82.0
2110 80.0
2111 84.0
2112 80.0
2113 80.0
2114 80.0
2115 81.0
2116 70.0
2117 71.0
2118 71.0
2119 71.0
2120 74.0
2121 75.0
2122 75.0
2123 74.0
2124 76.0
2125 76.0
2126 80.0
2127 80.0
2128 70.0
2129 70.0
2130 74.0
2131 74.0
2132 70.0
2133 70.0
2134 71.0
2135 71.0
2136 68.0
2137 69.0
2138 63.0
2139 63.0
2140 72.0
2141 72.0
2142 66.0
2143 67.0
2144 73.0
2145 72.0
2146 72.0
2147 73.0
2148 76.0
2149 67.0
2150 72.0
2151 66.0
2152 73.0
2153 76.0
2154 83.0
2155 73.0
2156 80.0
2157 74.0
2158 79.0
2159 83.0
2160 79.0
2161 73.0
2162 78.0
2163 73.0
2164 71.0
2165 66.0
2166 71.0
2167 65.0
2168 68.0
2169 69.0
2170 71.0
2171 70.0
2172 72.0
2173 66.0
2174 69.0
2175 71.0
2176 62.0
2177 64.0
2178 67.0
2179 61.0
2180 61.0
2181 69.0
2182 64.0
2183 56.0
2184 69.0
2185 64.0
2186 59.0
2187 61.0
2188 67.0
2189 69.0
2190 64.0
2191 59.0
2192 67.0
2193 74.0
2194 68.0
2195 61.0
2196 62.0
2197 55.0
2198 64.0
2199 62.0
2200 65.0
2201 70.0
2202 73.0
2203 65.0
2204 68.0
2205 58.0
2206 67.0
2207 65.0
2208 75.0
2209 69.0
2210 74.0
2211 69.0
2212 72.0
2213 67.0
2214 72.0
2215 66.0
2216 67.0
2217 68.0
2218 71.0
2219 70.0
2220 73.0
2221 67.0
2222 68.0
2223 71.0
2224 66.0
2225 69.0
2226 70.0
2227 64.0
2228 65.0
2229 74.0
2230 69.0
2231 60.0
2232 65.0
2233 60.0
2234 58.0
2235 61.0
2236 61.0
2237 64.0
2238 62.0
2239 57.0
2240 61.0
2241 69.0
2242 63.0
2243 55.0
2244 58.0
2245 56.0
2246 62.0
2247 64.0
2248 63.0
2249 67.0
2250 69.0
2251 66.0
2252 65.0
2253 58.0
2254 64.0
2255 60.0
2256 78.0
2257 72.0
2258 75.0
2259 77.0
2260 66.0
2261 68.0
2262 71.0
2263 65.0
2264 61.0
2265 69.0
2266 72.0
2267 64.0
2268 83.0
2269 77.0
2270 78.0
2271 81.0
2272 69.0
2273 72.0
2274 73.0
2275 67.0
2276 66.0
2277 75.0
2278 77.0
2279 68.0
2280 73.0
2281 75.0
2282 64.0
2283 67.0
2284 71.0
2285 74.0
2286 63.0
2287 65.0
2288 76.0
2289 77.0
2290 71.0
2291 70.0
2292 70.0
2293 66.0
2294 72.0
2295 67.0
2296 80.0
2297 79.0
2298 74.0
2299 62.0
2300 75.0
2301 61.0
2302 67.0
2303 65.0
2304 76.0
2305 71.0
2306 66.0
2307 68.0
2308 67.0
2309 69.0
2310 64.0
2311 59.0
2312 60.0
2313 67.0
2314 70.0
2315 63.0
2316 71.0
2317 66.0
2318 64.0
2319 67.0
2320 65.0
2321 68.0
2322 66.0
2323 61.0
2324 55.0
2325 63.0
2326 65.0
2327 57.0
2328 69.0
2329 71.0
2330 60.0
2331 63.0
2332 72.0
2333 75.0
2334 64.0
2335 66.0
2336 69.0
2337 70.0
2338 65.0
2339 64.0
2340 72.0
2341 70.0
2342 69.0
2343 71.0
2344 76.0
2345 80.0
2346 74.0
2347 65.0
2348 70.0
2349 64.0
2350 63.0
2351 66.0
2352 67.0
2353 60.0
2354 60.0
2355 58.0
2356 58.0
2357 63.0
2358 64.0
2359 62.0
2360 62.0
2361 64.0
2362 55.0
2363 59.0
2364 66.0
2365 62.0
2366 71.0
2367 66.0
2368 69.0
2369 68.0
2370 72.0
2371 70.0
2372 67.0
2373 69.0
2374 72.0
2375 76.0
2376 75.0
2377 67.0
2378 68.0
2379 58.0
2380 65.0
2381 63.0
2382 71.0
2383 68.0
2384 69.0
2385 62.0
2386 61.0
2387 57.0
2388 66.0
2389 54.0
2390 71.0
2391 57.0
2392 61.0
2393 59.0
2394 70.0
2395 61.0
2396 65.0
2397 59.0
2398 63.0
2399 66.0
2400 65.0
2401 71.0
2402 64.0
2403 64.0
2404 67.0
2405 61.0
2406 58.0
2407 61.0
2408 54.0
2409 59.0
2410 60.0
2411 62.0
2412 62.0
2413 58.0
2414 59.0
2415 63.0
2416 59.0
2417 67.0
2418 61.0
2419 54.0
2420 64.0
2421 62.0
2422 58.0
2423 63.0
2424 62.0
2425 68.0
2426 66.0
2427 66.0
2428 68.0
2429 62.0
2430 60.0
2431 62.0
2432 60.0
2433 64.0
2434 66.0
2435 68.0
2436 59.0
2437 59.0
2438 55.0
2439 63.0
2440 55.0
2441 63.0
2442 58.0
2443 56.0
2444 62.0
2445 64.0
2446 56.0
2447 60.0
2448 64.0
2449 67.0
2450 58.0
2451 63.0
2452 60.0
2453 62.0
2454 69.0
2455 71.0
2456 62.0
2457 66.0
2458 65.0
2459 67.0
2460 65.0
2461 63.0
2462 64.0
2463 62.0
2464 69.0
2465 69.0
2466 70.0
2467 66.0
2468 71.0
2469 66.0
2470 73.0
2471 72.0
2472 76.0
2473 72.0
2474 66.0
2475 70.0
2476 66.0
2477 74.0
2478 71.0
2479 71.0
2480 65.0
2481 73.0
2482 61.0
2483 69.0
2484 68.0
2485 66.0
2486 72.0
2487 70.0
2488 76.0
2489 76.0
2490 72.0
2491 70.0
2492 68.0
2493 70.0
2494 76.0
2495 80.0
2496 67.0
2497 60.0
2498 60.0
2499 58.0
2500 58.0
2501 63.0
2502 63.0
2503 61.0
2504 61.0
2505 63.0
2506 54.0
2507 58.0
2508 66.0
2509 62.0
2510 71.0
2511 66.0
2512 69.0
2513 68.0
2514 65.0
2515 63.0
2516 60.0
2517 62.0
2518 65.0
2519 69.0
